Total weight: 1578.75577652397
Route 1: 0 72 36 39 42 5 45 2 69 11 15 16 47 14 12 88 98 82 99 9 87 59 75 97 10 60 55 68 0 
Route 2: 0 63 33 28 27 30 62 71 44 38 40 8 79 73 78 6 46 7 53 90 80 0 
Route 3: 0 23 21 19 76 51 84 56 52 86 57 49 24 74 13 17 77 58 25 48 0 
Route 4: 0 92 94 95 67 34 31 29 26 32 89 85 50 93 96 81 0 
Route 5: 0 20 18 22 91 41 43 54 61 37 35 1 4 3 100 70 0 
Route 6: 0 65 83 64 66 0 
